1
1000
249
499 1
497 1
496 1
495 1
494 1
494 1
493 1
492 1
491 1
482 1
480 1
479 1
479 1
479 1
478 1
475 1
468 1
467 1
466 1
465 1
461 1
460 1
457 1
457 1
453 1
453 1
453 1
452 1
448 1
448 1
447 1
444 1
443 1
442 1
440 1
439 1
436 1
432 1
432 1
429 1
428 1
427 1
423 1
420 1
415 1
415 1
414 1
414 1
414 1
413 1
412 1
410 1
408 1
407 1
406 1
403 1
400 1
396 1
395 1
395 1
394 1
393 1
393 1
392 1
389 1
387 1
386 1
384 1
383 1
380 1
380 1
376 1
375 1
374 1
372 1
371 1
370 1
369 1
369 1
366 1
366 1
364 1
363 1
362 1
357 1
357 1
356 1
354 1
352 1
352 1
352 1
352 1
351 1
351 1
350 1
350 1
346 1
346 1
342 1
341 1
340 1
339 1
336 1
335 1
335 1
332 1
332 1
331 1
325 1
321 1
321 1
321 1
318 1
317 1
316 1
316 1
314 1
314 1
313 1
313 1
313 1
312 1
310 1
310 1
309 1
308 1
308 1
306 1
305 1
303 1
302 1
300 1
300 1
300 1
300 1
298 1
298 1
297 1
295 1
295 1
294 1
294 1
293 1
293 1
293 1
291 1
290 1
290 1
289 1
289 1
289 1
289 1
289 1
285 1
285 1
284 1
284 1
284 1
284 1
283 1
282 1
282 1
282 1
280 1
278 1
278 1
278 1
277 1
275 1
274 1
274 1
274 1
273 1
271 1
271 1
270 1
270 1
269 1
269 1
269 1
268 1
266 1
266 1
266 1
265 1
264 1
264 1
264 1
264 1
263 1
263 1
263 1
263 1
262 1
262 1
261 1
261 1
260 1
259 1
259 1
259 1
259 1
258 1
258 1
258 1
257 1
257 1
257 1
257 1
257 1
256 1
256 1
256 1
256 1
256 1
256 1
255 1
255 1
255 1
255 1
255 1
254 1
254 1
254 1
254 1
254 1
253 1
253 1
253 1
253 1
252 1
252 1
252 1
252 1
251 1
251 1
251 1
251 1
251 1
251 1
250 1
250 1
250 1
250 1
250 1
250 1
250 1
250 1
250 1
